10J3M/DAT/10J3MUTL-15.dat
10 3
43.6418 43.6418
21.5863 21.5863
19.1863 19.1863
19.6185 19.6185
12.1046 12.1046
48.5399 48.5399
48.5573 48.5573
33.9926 33.9926
8.8267 8.8267
14.1641 14.1641
67.5545