10J3M/SOL/10J3MUTL-15.sol
solution status: optimal solution found
objective value:                              77.5855
x#1#1                               0.348008331833261 	(obj:0)
x#2#1                                               1 	(obj:0)
x#3#2                                               1 	(obj:0)
x#4#3                                               1 	(obj:0)
x#5#1                                               1 	(obj:0)
x#6#1                                               1 	(obj:0)
x#7#2                                               1 	(obj:0)
x#8#2                               0.187428235395507 	(obj:0)
x#8#3                               0.812571764604493 	(obj:0)
x#10#2                              0.135847635746479 	(obj:0)
z                                             77.5855 	(obj:1)
